************************************************************************
file with basedata            : cm545_.bas
initial value random generator: 626221299
************************************************************************
projects                      :  1
jobs (incl. supersource/sink ):  18
horizon                       :  145
RESOURCES
  - renewable                 :  2   R
  - nonrenewable              :  2   N
  - doubly constrained        :  0   D
************************************************************************
PROJECT INFORMATION:
pronr.  #jobs rel.date duedate tardcost  MPM-Time
    1     16      0       17        6       17
************************************************************************
PRECEDENCE RELATIONS:
jobnr.    #modes  #successors   successors
   1        1          3           2   3   4
   2        5          3           6   8  10
   3        5          3           6  10  11
   4        5          2           5  17
   5        5          1           7
   6        5          3          15  16  17
   7        5          2           9  10
   8        5          3          11  14  17
   9        5          2          11  14
  10        5          1          12
  11        5          1          13
  12        5          2          13  14
  13        5          2          15  16
  14        5          2          15  16
  15        5          1          18
  16        5          1          18
  17        5          1          18
  18        1          0        
************************************************************************
REQUESTS/DURATIONS:
jobnr. mode duration  R 1  R 2  N 1  N 2
------------------------------------------------------------------------
  1      1     0       0    0    0    0
  2      1     2       7   10   10    9
         2     3       6    8    7    8
         3     5       5    8    7    8
         4     7       5    5    4    7
         5     9       3    4    4    7
  3      1     2       8    7    7    7
         2     2       8    6    8    8
         3     2       8    5    6   10
         4     6       7    5    3    6
         5    10       7    3    1    2
  4      1     1       5    4    9    6
         2     3       4    4    8    6
         3     4       3    3    5    6
         4     4       3    4    5    5
         5     9       3    2    5    5
  5      1     1       3    5    6   10
         2     4       3    5    5    9
         3     6       2    4    4    6
         4     7       2    4    4    5
         5     9       2    4    3    4
  6      1     5       6    9    5    9
         2     5       5    9    6    9
         3     6       4    9    5    5
         4     7       4    8    2    3
         5    10       3    8    1    2
  7      1     1       2    4    4    8
         2     6       2    4    4    5
         3     9       2    3    4    3
         4    10       1    2    3    1
         5    10       1    1    3    3
  8      1     1       9    3   10    4
         2     3       9    2   10    3
         3     3       8    3    9    3
         4     6       8    2    9    3
         5     7       7    2    9    2
  9      1     4       5    5    9    9
         2     5       5    5    8    6
         3     5       5    4    7    8
         4     7       5    4    5    5
         5     8       4    2    4    3
 10      1     4       7    3    8    9
         2     5       7    3    8    7
         3     6       6    3    8    6
         4     9       3    1    8    5
         5     9       4    2    8    4
 11      1     1       5    9    4    7
         2     2       4    6    4    7
         3     4       4    5    3    6
         4     6       3    4    2    6
         5     9       3    2    2    6
 12      1     3       6    9    3    8
         2     4       5    7    3    6
         3     7       3    6    3    6
         4     8       3    4    3    5
         5    10       1    3    3    4
 13      1     1       3    6    9    8
         2     1       3    6   10    7
         3     4       2    5    9    6
         4     6       2    5    7    3
         5     9       2    4    7    2
 14      1     1      10    6    9   10
         2     1       9    6   10    9
         3     4       9    5    9    9
         4     6       8    5    7    8
         5     8       8    5    7    6
 15      1     3       9    3    6    9
         2     8       8    3    4    7
         3     9       8    2    4    5
         4    10       7    2    3    2
         5    10       7    2    1    4
 16      1     6       7    8    8    8
         2     6       8    9    8    7
         3     6       7   10    8    6
         4     6       9    7    8    7
         5    10       6    2    5    4
 17      1     1      10    7    6    6
         2     4       7    6    5    6
         3     6       7    6    4    5
         4     8       4    6    3    4
         5     8       4    5    4    4
 18      1     0       0    0    0    0
************************************************************************
RESOURCEAVAILABILITIES:
  R 1  R 2  N 1  N 2
   11   12   92   94
************************************************************************
